unsat
(:conflicts            1
 :max-generation       1
 :max-memory           66.62
 :memory               36.65
 :mk-bool-var          48592
 :mk-clause            2957
 :mk-clause-binary     27236
 :num-allocs           448013030
 :num-checks           1
 :quant-instantiations 3133
 :rlimit-count         1829691
 :time                 0.17)
